************************************************************************
file with basedata            : md349_.bas
initial value random generator: 1663938085
************************************************************************
projects                      :  1
jobs (incl. supersource/sink ):  22
horizon                       :  153
RESOURCES
  - renewable                 :  2   R
  - nonrenewable              :  2   N
  - doubly constrained        :  0   D
************************************************************************
PROJECT INFORMATION:
pronr.  #jobs rel.date duedate tardcost  MPM-Time
    1     20      0       20       16       20
************************************************************************
PRECEDENCE RELATIONS:
jobnr.    #modes  #successors   successors
   1        1          3           2   3   4
   2        3          3           5   8  12
   3        3          2           6  10
   4        3          3           6   7  18
   5        3          3          13  15  16
   6        3          3           9  11  17
   7        3          3          10  13  15
   8        3          2          13  20
   9        3          1          21
  10        3          2          14  19
  11        3          1          19
  12        3          3          14  15  19
  13        3          1          14
  14        3          1          17
  15        3          2          17  20
  16        3          1          18
  17        3          1          21
  18        3          2          20  21
  19        3          1          22
  20        3          1          22
  21        3          1          22
  22        1          0        
************************************************************************
REQUESTS/DURATIONS:
jobnr. mode duration  R 1  R 2  N 1  N 2
------------------------------------------------------------------------
  1      1     0       0    0    0    0
  2      1     4       8    9    4    0
         2     7       4    6    0    8
         3    10       3    4    4    0
  3      1     4       1    7    0    2
         2     5       1    7    2    0
         3     8       1    6    1    0
  4      1     3       7    9    0    2
         2     4       6    9    0    1
         3     9       4    8    0    1
  5      1     7       7    7    0   10
         2     9       5    2    2    0
         3     9       5    3    0    7
  6      1     2       6   10    9    0
         2     3       6    8    5    0
         3     4       4    5    0    2
  7      1     2       8    4    8    0
         2     9       7    3    8    0
         3    10       4    1    7    0
  8      1     1       5   10    6    0
         2     6       4    5    0    4
         3     7       3    1    4    0
  9      1     2       9    3    7    0
         2     5       7    2    5    0
         3     7       5    2    0    1
 10      1     2       7    8    9    0
         2     3       7    5    8    0
         3     7       7    2    6    0
 11      1     4       9    6    7    0
         2     7       7    6    3    0
         3     9       6    4    3    0
 12      1     4      10    7    0    7
         2     6       8    6    0    7
         3     9       7    4    0    7
 13      1     3       8    7    0    5
         2     5       7    4    8    0
         3     9       6    2    0    4
 14      1     2       4    7    7    0
         2     5       2    6    0    7
         3     7       1    1    0    5
 15      1     1       9    2    2    0
         2     2       8    1    0    5
         3     4       7    1    0    3
 16      1     2       7    6    0    6
         2     3       7    5    0    6
         3     5       7    5    9    0
 17      1     2       6    2    7    0
         2     4       3    1    7    0
         3    10       3    1    6    0
 18      1     2       7    9    3    0
         2     2       6    8    0   10
         3     5       6    7    0    6
 19      1     4       8    7    7    0
         2     6       8    5    3    0
         3    10       6    2    2    0
 20      1     1       9    9    0    3
         2     4       9    9   10    0
         3     6       7    8    0    2
 21      1     2       9    3    0    7
         2     5       7    3    0    5
         3     8       5    3    0    4
 22      1     0       0    0    0    0
************************************************************************
RESOURCEAVAILABILITIES:
  R 1  R 2  N 1  N 2
   16   16  107   79
************************************************************************
MAXIMAL LAGS:
from  to  type  delay
    1   12   ES      0
    1    2   ES      0
    2   12   ES      0
    1    3   ES      0
    3   12   ES      0
    1    4   ES      0
    4   12   ES      0
    1    5   ES      0
    5   12   ES      0
    1    6   ES      0
    6   12   ES      0
    1    7   ES      0
    7   12   ES      0
    1    8   ES      0
    8   12   ES      0
    1    9   ES      0
    9   12   ES      0
    1   10   ES      0
   10   12   ES      0
    1   11   ES      0
   11   12   ES      0
    1   12   ES      0
    2    5   SS      1
    2    5   SE     -9
    2    5   ES     -3
    2    5   EE     12
    2    8   SS     -2
    2    8   SE     -3
    2    8   ES     -6
    2    8   EE     10
    3    6   SS    -11
    3    6   SE      2
    3    6   ES      6
    3    6   EE      1
    3   10   SS     -5
    3   10   SE      9
    3   10   ES     12
    3   10   EE      2
    4    6   SS     -5
    4    6   SE     -9
    4    6   ES      9
    4    6   EE    -12
    4    7   SS    -12
    4    7   SE      5
    4    7   ES      8
    4    7   EE      9
    4   18   SS     11
    4   18   SE     -9
    4   18   ES      3
    4   18   EE      4
    5   13   SS     -1
    5   13   SE     -7
    5   13   ES     -8
    5   13   EE     -9
    5   15   SS    -10
    5   15   SE     -1
    5   15   ES     11
    5   15   EE      5
    5   16   SS      2
    5   16   SE    -10
    5   16   ES      5
    5   16   EE     -4
    6    9   SS     -2
    6    9   SE     -7
    6    9   ES     -6
    6    9   EE     -1
    6   11   SS      9
    6   11   SE     -4
    6   11   ES     11
    6   11   EE     -7
    6   17   SS      1
    6   17   SE      4
    6   17   ES      2
    6   17   EE     -4
    7   10   SS     -4
    7   10   SE      9
    7   10   ES      8
    7   10   EE      9
    7   13   SS      3
    7   13   SE    -11
    7   13   ES     -9
    7   13   EE      3
    7   15   SS     -6
    7   15   SE      8
    7   15   ES     -7
    7   15   EE      8
    8   13   SS      9
    8   13   SE    -12
    8   13   ES     10
    8   13   EE      4
    8   20   SS      1
    8   20   SE     -2
    8   20   ES     11
    8   20   EE     -8
    9   21   SS     -5
    9   21   SE      2
    9   21   ES      2
    9   21   EE      2
   10   14   SS     -8
   10   14   SE      6
   10   14   ES      1
   10   14   EE      0
   10   19   SS      9
   10   19   SE     -2
   10   19   ES      1
   10   19   EE     -6
   11   19   SS     -6
   11   19   SE      2
   11   19   ES    -12
   11   19   EE     -9
   12   14   SS     -4
   12   14   SE    -11
   12   14   ES      8
   12   14   EE    -11
   12   15   SS     12
   12   15   SE      8
   12   15   ES     10
   12   15   EE     -1
   12   19   SS     -8
   12   19   SE      2
   12   19   ES      5
   12   19   EE    -10
   13   14   SS    -12
   13   14   SE     -1
   13   14   ES     -2
   13   14   EE      8
   14   17   SS      4
   14   17   SE      9
   14   17   ES    -11
   14   17   EE    -11
   15   17   SS    -12
   15   17   SE     -8
   15   17   ES      3
   15   17   EE      9
   15   20   SS     -7
   15   20   SE     11
   15   20   ES     -8
   15   20   EE    -10
   16   18   SS     -3
   16   18   SE     -7
   16   18   ES     -2
   16   18   EE      2
   17   21   SS      9
   17   21   SE     -6
   17   21   ES     -9
   17   21   EE      1
   18   20   SS    -12
   18   20   SE      7
   18   20   ES     -3
   18   20   EE     -5
   18   21   SS      6
   18   21   SE     10
   18   21   ES     -9
   18   21   EE     12
   19   22   SS     -6
   19   22   SE     12
   22   19   SE      0
   19   22   ES      0
   19   22   EE      4
   20   22   SS      8
   20   22   SE     10
   20   22   ES    -10
   20   22   EE      3
   21   22   SS     -7
   21   22   SE    -11
   21   22   ES     -6
   21   22   EE     -9
************************************************************************
